
(set-logic QF_BV)

(define-fun min () (_ BitVec 21) (bvnot (bvlshr (bvnot (_ bv0 21)) (_ bv1 21))))

(define-fun max () (_ BitVec 21) (bvnot min))

(define-fun udivtotal ((a (_ BitVec 21)) (b (_ BitVec 21))) (_ BitVec 21)
  (ite (= b (_ bv0 21)) (bvnot (_ bv0 21)) (bvudiv a b))
)
(define-fun uremtotal ((a (_ BitVec 21)) (b (_ BitVec 21))) (_ BitVec 21)
  (ite (= b (_ bv0 21)) a (bvurem a b))
)

(declare-fun s () (_ BitVec 21))
(declare-fun t () (_ BitVec 21))
(define-fun inv ((s (_ BitVec 21)) (t (_ BitVec 21))) (_ BitVec 21) (bvsub (bvor s #b100000000000000000000) (bvand t #b011111111111111111111)))
(define-fun l ((x (_ BitVec 21))) Bool  (bvsge (uremtotal s (inv s t)) t))
(define-fun SC () Bool (and (=> (bvsge s (_ bv0 21)) (bvsge s t)) (=> (and (bvslt s (_ bv0 21)) (bvsge t (_ bv0 21))) (bvugt (bvsub s t) t))))
(define-fun is_cond_inv () Bool (=> SC (l (inv s t))))

(assert (not is_cond_inv))
(check-sat)
